============================[ Problem Statistics ]=============================|                                                                             ||  Number of variables:         79592                                         ||  Number of clauses:          270633                                         ||  Parse time:                   0.77 s                                       ||                                                                             |============================[ Search Statistics ]==============================| Conflicts |          ORIGINAL         |          LEARNT          | Progress ||           |    Vars  Clauses Literals |    Limit  Clauses Lit/Cl |          |===============================================================================|       100 |   30950   181188   441410 |    66435      100     17 | 61.114 % ||       250 |   30950   181188   441410 |    73079      250     15 | 61.114 % ||       475 |   30791   179769   438090 |    80387      350     12 | 61.314 % ||       812 |   30581   177294   432169 |    88425      682     11 | 61.578 % |===============================================================================restarts              : 7conflicts             : 992            (419 /sec)decisions             : 1787           (0.00 % random) (756 /sec)propagations          : 3894384        (1646674 /sec)conflict literals     : 10756          (32.09 % deleted)CPU time              : 2.365 sUNSATISFIABLE